;; Mutation-Based Equivalence Benchmark
;; Source:     AutomatArk / instance02276.smt2
;; Mutations:  union_to_inter
;; Status:     sat
;;
;; Original regex vs mutated regex
;; Equivalence check: unsat ⟺ L(R1) = L(R2)

(set-info :smt-lib-version 2.6)
(set-info :category "mutation")
(set-info :status sat)
(set-logic QF_S)


;; R1: original
;; R2: mutated (union_to_inter)
(assert
  (not
    (=
      (re.++ (str.to_re "/SSID=") ((_ re.loop 43 43) (re.union (re.range "a" "z") (re.range "A" "Z") (re.range "0" "9"))) (str.to_re "; A=") (re.range "0" "3") (str.to_re "/C\u{a}"))
      (re.++ (str.to_re "/SSID=") ((_ re.loop 43 43) (re.inter (re.range "a" "z") (re.range "A" "Z") (re.range "0" "9"))) (str.to_re "; A=") (re.range "0" "3") (str.to_re "/C\u{a}")))))

(check-sat)
(exit)
